sat_in/task3/26.cnf
p cnf 21 147
1 4 7 10 13 16 19 0
2 5 8 11 14 17 20 0
3 6 9 12 15 18 21 0
-1 -11 0
-1 -12 0
-2 -10 0
-2 -12 0
-3 -10 0
-3 -11 0
-4 -8 0
-4 -9 0
-5 -7 0
-5 -9 0
-6 -7 0
-6 -8 0
-4 -17 0
-4 -18 0
-5 -16 0
-5 -18 0
-6 -16 0
-6 -17 0
-4 -20 0
-4 -21 0
-5 -19 0
-5 -21 0
-6 -19 0
-6 -20 0
-7 -11 0
-7 -12 0
-8 -10 0
-8 -12 0
-9 -10 0
-9 -11 0
-7 -17 0
-7 -18 0
-8 -16 0
-8 -18 0
-9 -16 0
-9 -17 0
-10 -17 0
-10 -18 0
-11 -16 0
-11 -18 0
-12 -16 0
-12 -17 0
-10 -20 0
-10 -21 0
-11 -19 0
-11 -21 0
-12 -19 0
-12 -20 0
-13 -17 0
-13 -18 0
-14 -16 0
-14 -18 0
-15 -16 0
-15 -17 0
-13 -20 0
-13 -21 0
-14 -19 0
-14 -21 0
-15 -19 0
-15 -20 0
-22 -5 0
-22 -6 0
-23 -4 0
-23 -6 0
-24 -4 0
-24 -5 0
-22 -8 0
-22 -9 0
-23 -7 0
-23 -9 0
-24 -7 0
-24 -8 0
-22 -11 0
-22 -12 0
-23 -10 0
-23 -12 0
-24 -10 0
-24 -11 0
-22 -14 0
-22 -15 0
-23 -13 0
-23 -15 0
-24 -13 0
-24 -14 0
-22 -17 0
-22 -18 0
-23 -16 0
-23 -18 0
-24 -16 0
-24 -17 0
-22 -20 0
-22 -21 0
-23 -19 0
-23 -21 0
-24 -19 0
-24 -20 0
-25 -8 0
-25 -9 0
-26 -7 0
-26 -9 0
-27 -7 0
-27 -8 0
-25 -11 0
-25 -12 0
-26 -10 0
-26 -12 0
-27 -10 0
-27 -11 0
-25 -14 0
-25 -15 0
-26 -13 0
-26 -15 0
-27 -13 0
-27 -14 0
-25 -17 0
-25 -18 0
-26 -16 0
-26 -18 0
-27 -16 0
-27 -17 0
-25 -20 0
-25 -21 0
-26 -19 0
-26 -21 0
-27 -19 0
-27 -20 0
-28 -11 0
-28 -12 0
-29 -10 0
-29 -12 0
-30 -10 0
-30 -11 0
-28 -14 0
-28 -15 0
-29 -13 0
-29 -15 0
-30 -13 0
-30 -14 0
-28 -17 0
-28 -18 0
-29 -16 0
-29 -18 0
-30 -16 0
-30 -17 0
-28 -20 0
-28 -21 0
-29 -19 0
-29 -21 0
-30 -19 0
-30 -20 0
-31 -14 0
-31 -15 0
-32 -13 0
-32 -15 0
-33 -13 0
-33 -14 0
-31 -17 0
-31 -18 0
-32 -16 0
-32 -18 0
-33 -16 0
-33 -17 0
-31 -20 0
-31 -21 0
-32 -19 0
-32 -21 0
-33 -19 0
-33 -20 0
-34 -17 0
-34 -18 0
-35 -16 0
-35 -18 0
-36 -16 0
-36 -17 0
-34 -20 0
-34 -21 0
-35 -19 0
-35 -21 0
-36 -19 0
-36 -20 0
-37 -20 0
-37 -21 0
-38 -19 0
-38 -21 0
-39 -19 0
-39 -20 0
-1 -4 0
-1 -7 0
-1 -10 0
-1 -13 0
-1 -16 0
-1 -19 0
-2 -5 0
-2 -8 0
-2 -11 0
-2 -14 0
-2 -17 0
-2 -20 0
-3 -6 0
-3 -9 0
-3 -12 0
-3 -15 0
-3 -18 0
-3 -21 0
-4 -7 0
-4 -10 0
-4 -13 0
-4 -16 0
-4 -19 0
-5 -8 0
-5 -11 0
-5 -14 0
-5 -17 0
-5 -20 0
-6 -9 0
-6 -12 0
-6 -15 0
-6 -18 0
-6 -21 0
-7 -10 0
-7 -13 0
-7 -16 0
-7 -19 0
-8 -11 0
-8 -14 0
-8 -17 0
-8 -20 0
-9 -12 0
-9 -15 0
-9 -18 0
-9 -21 0
-10 -13 0
-10 -16 0
-10 -19 0
-11 -14 0
-11 -17 0
-11 -20 0
-12 -15 0
-12 -18 0
-12 -21 0
-13 -16 0
-13 -19 0
-14 -17 0
-14 -20 0
-15 -18 0
-15 -21 0
-16 -19 0
-17 -20 0
-18 -21 0
-1 -2 0
-1 -3 0
-2 -3 0
-4 -5 0
-4 -6 0
-5 -6 0
-7 -8 0
-7 -9 0
-8 -9 0
-10 -11 0
-10 -12 0
-11 -12 0
-13 -14 0
-13 -15 0
-14 -15 0
-16 -17 0
-16 -18 0
-17 -18 0
-19 -20 0
-19 -21 0
-20 -21 0
